NAME : a280.tsp
COMMENT : Optimal tour for a280.tsp
TYPE : TOUR
DIMENSION : 280
Total Length: 2852.4281940418873
TOUR_SECTION
1
2
280
3
279
278
260
261
262
263
264
265
140
141
142
143
144
145
146
147
148
139
149
150
138
266
267
137
136
268
269
135
134
270
16
271
272
273
274
275
276
277
4
5
6
7
8
9
10
11
12
13
15
14
24
23
25
22
26
27
28
29
126
127
128
21
20
19
18
17
133
132
131
130
129
154
155
153
156
152
151
178
177
176
179
180
181
182
183
162
173
106
107
174
161
175
160
159
158
157
119
120
121
122
123
124
125
30
31
32
33
34
61
118
117
115
114
113
111
110
108
105
104
90
80
79
81
82
89
109
112
88
83
84
87
116
86
85
66
65
64
63
62
60
43
42
41
40
39
35
36
37
38
49
50
51
52
53
48
54
55
56
57
47
46
45
44
59
58
68
69
67
70
71
72
73
74
76
75
77
78
95
94
96
97
98
93
91
92
99
100
101
102
103
169
170
171
172
168
167
166
165
164
163
184
185
186
187
188
189
190
191
192
193
194
195
196
197
198
199
200
201
202
203
204
205
206
207
208
253
254
257
258
259
256
255
252
209
210
211
212
213
214
215
218
216
217
219
220
221
222
223
224
225
226
227
228
229
230
251
250
249
248
247
243
242
241
244
245
240
239
246
231
238
237
232
233
236
234
235
-1
EOF
